(set-info :smt-lib-version 2.6)
(set-logic QF_NIA)
(set-info :source |
Generated by: Cristina Borralleras, Daniel Larraz, Albert Oliveras, Enric Rodriguez-Carbonell, Albert Rubio
Generated on: 2017-04-27
Generator: VeryMax
Application: Termination proving
Target solver: barcelogic
|)
(set-info :license "https://creativecommons.org/licenses/by/4.0/")
(set-info :category "industrial")
(set-info :status sat)
(declare-fun Nl4arg11 () Int)
(declare-fun Nl4arg21 () Int)
(declare-fun Nl4arg31 () Int)
(declare-fun Nl4arg41 () Int)
(declare-fun Nl4arg51 () Int)
(declare-fun Nl4arg61 () Int)
(declare-fun lam0n0 () Int)
(declare-fun lam0n1 () Int)
(declare-fun lam0n2 () Int)
(declare-fun lam0n3 () Int)
(declare-fun lam0n4 () Int)
(declare-fun lam0n5 () Int)
(declare-fun lam0n6 () Int)
(declare-fun lam0n7 () Int)
(declare-fun lam0n8 () Int)
(declare-fun lam0n9 () Int)
(declare-fun UndefCntr0_CT () Int)
(declare-fun Nl4CT1 () Int)
(declare-fun UndefCntr0_arg1 () Int)
(declare-fun UndefCntr0_arg2 () Int)
(declare-fun UndefCntr0_arg3 () Int)
(declare-fun UndefCntr0_arg4 () Int)
(declare-fun UndefCntr0_arg5 () Int)
(declare-fun UndefCntr0_arg6 () Int)
(declare-fun UndefCntr0_undef34 () Int)
(declare-fun UndefCntr0_undef35 () Int)
(declare-fun UndefCntr0_undef36 () Int)
(declare-fun UndefCntr0_undef37 () Int)
(declare-fun UndefCntr0_undef38 () Int)
(declare-fun UndefCntr0_undef39 () Int)
(declare-fun lam1n0 () Int)
(declare-fun lam1n1 () Int)
(declare-fun lam1n2 () Int)
(declare-fun lam1n3 () Int)
(declare-fun lam1n4 () Int)
(declare-fun lam1n5 () Int)
(declare-fun lam1n6 () Int)
(declare-fun lam1n7 () Int)
(declare-fun lam1n8 () Int)
(declare-fun lam1n9 () Int)
(declare-fun lam2n0 () Int)
(declare-fun lam2n1 () Int)
(declare-fun lam2n2 () Int)
(declare-fun lam2n3 () Int)
(declare-fun lam2n4 () Int)
(declare-fun lam2n5 () Int)
(declare-fun lam2n6 () Int)
(declare-fun lam2n7 () Int)
(declare-fun lam2n8 () Int)
(declare-fun lam2n9 () Int)
(declare-fun UndefCntr1_CT () Int)
(declare-fun UndefCntr1_arg1 () Int)
(declare-fun UndefCntr1_arg2 () Int)
(declare-fun UndefCntr1_arg3 () Int)
(declare-fun UndefCntr1_arg4 () Int)
(declare-fun UndefCntr1_arg5 () Int)
(declare-fun UndefCntr1_arg6 () Int)
(declare-fun UndefCntr1_undef40 () Int)
(declare-fun UndefCntr1_undef41 () Int)
(declare-fun UndefCntr1_undef42 () Int)
(declare-fun UndefCntr1_undef43 () Int)
(declare-fun UndefCntr1_undef44 () Int)
(declare-fun UndefCntr1_undef45 () Int)
(declare-fun lam3n0 () Int)
(declare-fun lam3n1 () Int)
(declare-fun lam3n2 () Int)
(declare-fun lam3n3 () Int)
(declare-fun lam3n4 () Int)
(declare-fun lam3n5 () Int)
(declare-fun lam3n6 () Int)
(declare-fun lam3n7 () Int)
(declare-fun lam3n8 () Int)
(declare-fun lam3n9 () Int)
(declare-fun lam4n0 () Int)
(declare-fun lam4n1 () Int)
(declare-fun lam4n2 () Int)
(declare-fun lam4n3 () Int)
(declare-fun lam4n4 () Int)
(declare-fun lam4n5 () Int)
(declare-fun lam4n6 () Int)
(declare-fun lam4n7 () Int)
(declare-fun arg1 () Int)
(declare-fun undef33 () Int)
(declare-fun arg2 () Int)
(declare-fun undef27 () Int)
(declare-fun undef28 () Int)
(declare-fun arg3 () Int)
(declare-fun undef29 () Int)
(declare-fun undef30 () Int)
(declare-fun undef31 () Int)
(declare-fun undef32 () Int)
(declare-fun FV_arg1_2 () Int)
(declare-fun FV_arg2_2 () Int)
(declare-fun FV_arg3_2 () Int)
(declare-fun FV_arg4_2 () Int)
(declare-fun FV_arg5_2 () Int)
(declare-fun FV_arg6_2 () Int)
(declare-fun lam5n0 () Int)
(declare-fun lam5n1 () Int)
(declare-fun lam5n2 () Int)
(declare-fun lam6n0 () Int)
(declare-fun lam6n1 () Int)
(declare-fun lam6n2 () Int)
(declare-fun UndefDef0undef34_CT () Int)
(declare-fun UndefDef0undef34_arg1 () Int)
(declare-fun UndefDef0undef34_arg2 () Int)
(declare-fun UndefDef0undef34_arg3 () Int)
(declare-fun UndefDef0undef34_arg4 () Int)
(declare-fun UndefDef0undef34_arg5 () Int)
(declare-fun UndefDef0undef34_arg6 () Int)
(declare-fun lam7n0 () Int)
(declare-fun lam7n1 () Int)
(declare-fun lam7n2 () Int)
(declare-fun UndefDef0undef35_CT () Int)
(declare-fun UndefDef0undef35_arg1 () Int)
(declare-fun UndefDef0undef35_arg2 () Int)
(declare-fun UndefDef0undef35_arg3 () Int)
(declare-fun UndefDef0undef35_arg4 () Int)
(declare-fun UndefDef0undef35_arg5 () Int)
(declare-fun UndefDef0undef35_arg6 () Int)
(declare-fun lam8n0 () Int)
(declare-fun lam8n1 () Int)
(declare-fun lam8n2 () Int)
(declare-fun lam9n0 () Int)
(declare-fun lam9n1 () Int)
(declare-fun lam9n2 () Int)
(declare-fun lam10n0 () Int)
(declare-fun lam10n1 () Int)
(declare-fun lam10n2 () Int)
(declare-fun lam11n0 () Int)
(declare-fun lam11n1 () Int)
(declare-fun lam11n2 () Int)
(declare-fun lam12n0 () Int)
(declare-fun lam12n1 () Int)
(declare-fun lam12n2 () Int)
(declare-fun lam13n0 () Int)
(declare-fun lam13n1 () Int)
(declare-fun lam13n2 () Int)
(declare-fun lam14n0 () Int)
(declare-fun lam14n1 () Int)
(declare-fun lam14n2 () Int)
(declare-fun UndefDef1undef40_CT () Int)
(declare-fun UndefDef1undef40_arg1 () Int)
(declare-fun UndefDef1undef40_arg2 () Int)
(declare-fun UndefDef1undef40_arg3 () Int)
(declare-fun UndefDef1undef40_arg4 () Int)
(declare-fun UndefDef1undef40_arg5 () Int)
(declare-fun UndefDef1undef40_arg6 () Int)
(declare-fun lam15n0 () Int)
(declare-fun lam15n1 () Int)
(declare-fun lam15n2 () Int)
(declare-fun UndefDef1undef41_CT () Int)
(declare-fun UndefDef1undef41_arg1 () Int)
(declare-fun UndefDef1undef41_arg2 () Int)
(declare-fun UndefDef1undef41_arg3 () Int)
(declare-fun UndefDef1undef41_arg4 () Int)
(declare-fun UndefDef1undef41_arg5 () Int)
(declare-fun UndefDef1undef41_arg6 () Int)
(declare-fun lam16n0 () Int)
(declare-fun lam16n1 () Int)
(declare-fun lam16n2 () Int)
(declare-fun lam17n0 () Int)
(declare-fun lam17n1 () Int)
(declare-fun lam17n2 () Int)
(declare-fun lam18n0 () Int)
(declare-fun lam18n1 () Int)
(declare-fun lam18n2 () Int)
(declare-fun lam19n0 () Int)
(declare-fun lam19n1 () Int)
(declare-fun lam19n2 () Int)
(declare-fun lam20n0 () Int)
(declare-fun lam20n1 () Int)
(declare-fun lam20n2 () Int)
(declare-fun lam21n0 () Int)
(declare-fun lam21n1 () Int)
(declare-fun lam21n2 () Int)
(declare-fun lam22n0 () Int)
(declare-fun lam22n1 () Int)
(declare-fun FV_arg1_3 () Int)
(declare-fun FV_arg2_3 () Int)
(declare-fun FV_arg3_3 () Int)
(declare-fun FV_arg4_3 () Int)
(declare-fun FV_arg5_3 () Int)
(declare-fun FV_arg6_3 () Int)
(declare-fun FV_undef34_3 () Int)
(declare-fun FV_undef35_3 () Int)
(declare-fun FV_undef40_3 () Int)
(declare-fun FV_undef41_3 () Int)
(assert ( and ( <= ( - 1 ) Nl4arg11 ) ( <= Nl4arg11 1 ) ( <= ( - 1 ) Nl4arg21 ) ( <= Nl4arg21 1 ) ( <= ( - 1 ) Nl4arg31 ) ( <= Nl4arg31 1 ) ( <= ( - 1 ) Nl4arg41 ) ( <= Nl4arg41 1 ) ( <= ( - 1 ) Nl4arg51 ) ( <= Nl4arg51 1 ) ( <= ( - 1 ) Nl4arg61 ) ( <= Nl4arg61 1 ) ))
(assert ( or ( and ( >= lam0n0 0 ) ( >= lam0n1 0 ) ( >= lam0n2 0 ) ( >= lam0n3 0 ) ( >= lam0n4 0 ) ( >= lam0n5 0 ) ( >= lam0n6 0 ) ( >= lam0n7 0 ) ( >= lam0n8 0 ) ( >= lam0n9 0 ) ( > ( + ( * 2 lam0n2 ) ( * 2 lam0n3 ) ( * 2 lam0n4 ) ( * 2 lam0n5 ) ( * 3 lam0n6 ) ( * 3 lam0n7 ) ( * UndefCntr0_CT lam0n8 ) ( * Nl4CT1 lam0n9 ) ( - 1 ) ) 0 ) ( = ( + ( * ( - 1 ) lam0n2 ) ( * ( - 1 ) lam0n3 ) ( * ( - 1 ) lam0n6 ) ( * UndefCntr0_arg1 lam0n8 ) ( * Nl4arg11 lam0n9 ) ) 0 ) ( = ( + ( * ( - 1 ) lam0n4 ) ( * ( - 1 ) lam0n5 ) ( * ( - 1 ) lam0n7 ) ( * UndefCntr0_arg2 lam0n8 ) ( * Nl4arg21 lam0n9 ) ) 0 ) ( = ( + ( * UndefCntr0_arg3 lam0n8 ) ( * Nl4arg31 lam0n9 ) ) 0 ) ( = ( + ( * UndefCntr0_arg4 lam0n8 ) ( * Nl4arg41 lam0n9 ) ) 0 ) ( = ( + ( * UndefCntr0_arg5 lam0n8 ) ( * Nl4arg51 lam0n9 ) ) 0 ) ( = ( + ( * UndefCntr0_arg6 lam0n8 ) ( * Nl4arg61 lam0n9 ) ) 0 ) ( = ( + ( * ( - 1 ) lam0n0 ) ( * 1 lam0n2 ) ( * 1 lam0n4 ) ( * UndefCntr0_undef34 lam0n8 ) ) 0 ) ( = ( + ( * ( - 1 ) lam0n1 ) ( * 1 lam0n3 ) ( * 1 lam0n5 ) ( * UndefCntr0_undef35 lam0n8 ) ) 0 ) ( = ( * UndefCntr0_undef36 lam0n8 ) 0 ) ( = ( * UndefCntr0_undef37 lam0n8 ) 0 ) ( = ( * UndefCntr0_undef38 lam0n8 ) 0 ) ( = ( * UndefCntr0_undef39 lam0n8 ) 0 ) ) ( and ( >= lam1n0 0 ) ( >= lam1n1 0 ) ( >= lam1n2 0 ) ( >= lam1n3 0 ) ( >= lam1n4 0 ) ( >= lam1n5 0 ) ( >= lam1n6 0 ) ( >= lam1n7 0 ) ( >= lam1n8 0 ) ( >= lam1n9 0 ) ( > ( + ( * 2 lam1n2 ) ( * 2 lam1n3 ) ( * 2 lam1n4 ) ( * 2 lam1n5 ) ( * 3 lam1n6 ) ( * 3 lam1n7 ) ( * UndefCntr0_CT lam1n8 ) ( * Nl4CT1 lam1n9 ) ( - 1 ( + ( + ( + ( + ( + ( + Nl4CT1 ( * Nl4arg11 0 ) ) ( * Nl4arg21 0 ) ) ( * Nl4arg31 0 ) ) ( * Nl4arg41 0 ) ) ( * Nl4arg51 0 ) ) ( * Nl4arg61 0 ) ) ) ) 0 ) ( = ( + ( * ( - 1 ) lam1n2 ) ( * ( - 1 ) lam1n3 ) ( * ( - 1 ) lam1n6 ) ( * UndefCntr0_arg1 lam1n8 ) ( * Nl4arg11 lam1n9 ) ) 0 ) ( = ( + ( * ( - 1 ) lam1n4 ) ( * ( - 1 ) lam1n5 ) ( * ( - 1 ) lam1n7 ) ( * UndefCntr0_arg2 lam1n8 ) ( * Nl4arg21 lam1n9 ) ) 0 ) ( = ( + ( * UndefCntr0_arg3 lam1n8 ) ( * Nl4arg31 lam1n9 ) ) 0 ) ( = ( + ( * UndefCntr0_arg4 lam1n8 ) ( * Nl4arg41 lam1n9 ) ) 0 ) ( = ( + ( * UndefCntr0_arg5 lam1n8 ) ( * Nl4arg51 lam1n9 ) ) 0 ) ( = ( + ( * UndefCntr0_arg6 lam1n8 ) ( * Nl4arg61 lam1n9 ) ) 0 ) ( = ( + ( * ( - 1 ) lam1n0 ) ( * 1 lam1n2 ) ( * 1 lam1n4 ) ( * UndefCntr0_undef34 lam1n8 ) ( - ( + 0 ( * Nl4arg11 1 ) ) ) ) 0 ) ( = ( + ( * ( - 1 ) lam1n1 ) ( * 1 lam1n3 ) ( * 1 lam1n5 ) ( * UndefCntr0_undef35 lam1n8 ) ( - ( + 0 ( * Nl4arg21 1 ) ) ) ) 0 ) ( = ( + ( * UndefCntr0_undef36 lam1n8 ) ( - ( + 0 ( * Nl4arg31 1 ) ) ) ) 0 ) ( = ( + ( * UndefCntr0_undef37 lam1n8 ) ( - ( + 0 ( * Nl4arg41 1 ) ) ) ) 0 ) ( = ( + ( * UndefCntr0_undef38 lam1n8 ) ( - ( + 0 ( * Nl4arg51 1 ) ) ) ) 0 ) ( = ( + ( * UndefCntr0_undef39 lam1n8 ) ( - ( + 0 ( * Nl4arg61 1 ) ) ) ) 0 ) ) ))
(assert ( or ( and ( >= lam2n0 0 ) ( >= lam2n1 0 ) ( >= lam2n2 0 ) ( >= lam2n3 0 ) ( >= lam2n4 0 ) ( >= lam2n5 0 ) ( >= lam2n6 0 ) ( >= lam2n7 0 ) ( >= lam2n8 0 ) ( >= lam2n9 0 ) ( > ( + ( * 3 lam2n0 ) ( * 3 lam2n1 ) ( * 3 lam2n2 ) ( * 3 lam2n3 ) ( * ( - 2 ) lam2n4 ) ( * ( - 2 ) lam2n5 ) ( * ( - 2 ) lam2n6 ) ( * ( - 2 ) lam2n7 ) ( * UndefCntr1_CT lam2n8 ) ( * Nl4CT1 lam2n9 ) ( - 1 ) ) 0 ) ( = ( + ( * ( - 1 ) lam2n0 ) ( * ( - 1 ) lam2n4 ) ( * ( - 1 ) lam2n5 ) ( * UndefCntr1_arg1 lam2n8 ) ( * Nl4arg11 lam2n9 ) ) 0 ) ( = ( + ( * ( - 1 ) lam2n1 ) ( * ( - 1 ) lam2n6 ) ( * ( - 1 ) lam2n7 ) ( * UndefCntr1_arg2 lam2n8 ) ( * Nl4arg21 lam2n9 ) ) 0 ) ( = ( + ( * UndefCntr1_arg3 lam2n8 ) ( * Nl4arg31 lam2n9 ) ) 0 ) ( = ( + ( * UndefCntr1_arg4 lam2n8 ) ( * Nl4arg41 lam2n9 ) ) 0 ) ( = ( + ( * UndefCntr1_arg5 lam2n8 ) ( * Nl4arg51 lam2n9 ) ) 0 ) ( = ( + ( * UndefCntr1_arg6 lam2n8 ) ( * Nl4arg61 lam2n9 ) ) 0 ) ( = ( + ( * ( - 1 ) lam2n2 ) ( * 1 lam2n4 ) ( * 1 lam2n6 ) ( * UndefCntr1_undef40 lam2n8 ) ) 0 ) ( = ( + ( * ( - 1 ) lam2n3 ) ( * 1 lam2n5 ) ( * 1 lam2n7 ) ( * UndefCntr1_undef41 lam2n8 ) ) 0 ) ( = ( * UndefCntr1_undef42 lam2n8 ) 0 ) ( = ( * UndefCntr1_undef43 lam2n8 ) 0 ) ( = ( * UndefCntr1_undef44 lam2n8 ) 0 ) ( = ( * UndefCntr1_undef45 lam2n8 ) 0 ) ) ( and ( >= lam3n0 0 ) ( >= lam3n1 0 ) ( >= lam3n2 0 ) ( >= lam3n3 0 ) ( >= lam3n4 0 ) ( >= lam3n5 0 ) ( >= lam3n6 0 ) ( >= lam3n7 0 ) ( >= lam3n8 0 ) ( >= lam3n9 0 ) ( > ( + ( * 3 lam3n0 ) ( * 3 lam3n1 ) ( * 3 lam3n2 ) ( * 3 lam3n3 ) ( * ( - 2 ) lam3n4 ) ( * ( - 2 ) lam3n5 ) ( * ( - 2 ) lam3n6 ) ( * ( - 2 ) lam3n7 ) ( * UndefCntr1_CT lam3n8 ) ( * Nl4CT1 lam3n9 ) ( - 1 ( + ( + ( + ( + ( + ( + Nl4CT1 ( * Nl4arg11 0 ) ) ( * Nl4arg21 0 ) ) ( * Nl4arg31 0 ) ) ( * Nl4arg41 0 ) ) ( * Nl4arg51 0 ) ) ( * Nl4arg61 0 ) ) ) ) 0 ) ( = ( + ( * ( - 1 ) lam3n0 ) ( * ( - 1 ) lam3n4 ) ( * ( - 1 ) lam3n5 ) ( * UndefCntr1_arg1 lam3n8 ) ( * Nl4arg11 lam3n9 ) ) 0 ) ( = ( + ( * ( - 1 ) lam3n1 ) ( * ( - 1 ) lam3n6 ) ( * ( - 1 ) lam3n7 ) ( * UndefCntr1_arg2 lam3n8 ) ( * Nl4arg21 lam3n9 ) ) 0 ) ( = ( + ( * UndefCntr1_arg3 lam3n8 ) ( * Nl4arg31 lam3n9 ) ) 0 ) ( = ( + ( * UndefCntr1_arg4 lam3n8 ) ( * Nl4arg41 lam3n9 ) ) 0 ) ( = ( + ( * UndefCntr1_arg5 lam3n8 ) ( * Nl4arg51 lam3n9 ) ) 0 ) ( = ( + ( * UndefCntr1_arg6 lam3n8 ) ( * Nl4arg61 lam3n9 ) ) 0 ) ( = ( + ( * ( - 1 ) lam3n2 ) ( * 1 lam3n4 ) ( * 1 lam3n6 ) ( * UndefCntr1_undef40 lam3n8 ) ( - ( + 0 ( * Nl4arg11 1 ) ) ) ) 0 ) ( = ( + ( * ( - 1 ) lam3n3 ) ( * 1 lam3n5 ) ( * 1 lam3n7 ) ( * UndefCntr1_undef41 lam3n8 ) ( - ( + 0 ( * Nl4arg21 1 ) ) ) ) 0 ) ( = ( + ( * UndefCntr1_undef42 lam3n8 ) ( - ( + 0 ( * Nl4arg31 1 ) ) ) ) 0 ) ( = ( + ( * UndefCntr1_undef43 lam3n8 ) ( - ( + 0 ( * Nl4arg41 1 ) ) ) ) 0 ) ( = ( + ( * UndefCntr1_undef44 lam3n8 ) ( - ( + 0 ( * Nl4arg51 1 ) ) ) ) 0 ) ( = ( + ( * UndefCntr1_undef45 lam3n8 ) ( - ( + 0 ( * Nl4arg61 1 ) ) ) ) 0 ) ) ))
(assert ( <= ( + Nl4CT1 ( * Nl4arg11 FV_arg1_2 ) ( * Nl4arg21 FV_arg2_2 ) ( * Nl4arg31 FV_arg3_2 ) ( * Nl4arg41 FV_arg4_2 ) ( * Nl4arg51 FV_arg5_2 ) ( * Nl4arg61 FV_arg6_2 ) ) 0 ))
(assert ( or ( not ( = UndefCntr0_arg1 0 ) ) ( not ( = UndefCntr0_arg2 0 ) ) ( not ( = UndefCntr0_arg3 0 ) ) ( not ( = UndefCntr0_arg4 0 ) ) ( not ( = UndefCntr0_arg5 0 ) ) ( not ( = UndefCntr0_arg6 0 ) ) ( not ( = UndefCntr0_undef34 0 ) ) ( not ( = UndefCntr0_undef35 0 ) ) ( not ( = UndefCntr0_undef36 0 ) ) ( not ( = UndefCntr0_undef37 0 ) ) ( not ( = UndefCntr0_undef38 0 ) ) ( not ( = UndefCntr0_undef39 0 ) ) ( = UndefCntr0_CT 0 ) ))
(assert ( or ( and ( = UndefCntr0_arg1 0 ) ( = UndefCntr0_arg2 0 ) ( = UndefCntr0_arg3 0 ) ( = UndefCntr0_arg4 0 ) ( = UndefCntr0_arg5 0 ) ( = UndefCntr0_arg6 0 ) ) ( or ( not ( = UndefCntr0_undef34 0 ) ) ( not ( = UndefCntr0_undef35 0 ) ) ( not ( = UndefCntr0_undef36 0 ) ) ( not ( = UndefCntr0_undef37 0 ) ) ( not ( = UndefCntr0_undef38 0 ) ) ( not ( = UndefCntr0_undef39 0 ) ) ) ))
(assert ( or ( not ( = UndefCntr1_arg1 0 ) ) ( not ( = UndefCntr1_arg2 0 ) ) ( not ( = UndefCntr1_arg3 0 ) ) ( not ( = UndefCntr1_arg4 0 ) ) ( not ( = UndefCntr1_arg5 0 ) ) ( not ( = UndefCntr1_arg6 0 ) ) ( not ( = UndefCntr1_undef40 0 ) ) ( not ( = UndefCntr1_undef41 0 ) ) ( not ( = UndefCntr1_undef42 0 ) ) ( not ( = UndefCntr1_undef43 0 ) ) ( not ( = UndefCntr1_undef44 0 ) ) ( not ( = UndefCntr1_undef45 0 ) ) ( = UndefCntr1_CT 0 ) ))
(assert ( or ( and ( = UndefCntr1_arg1 0 ) ( = UndefCntr1_arg2 0 ) ( = UndefCntr1_arg3 0 ) ( = UndefCntr1_arg4 0 ) ( = UndefCntr1_arg5 0 ) ( = UndefCntr1_arg6 0 ) ) ( or ( not ( = UndefCntr1_undef40 0 ) ) ( not ( = UndefCntr1_undef41 0 ) ) ( not ( = UndefCntr1_undef42 0 ) ) ( not ( = UndefCntr1_undef43 0 ) ) ( not ( = UndefCntr1_undef44 0 ) ) ( not ( = UndefCntr1_undef45 0 ) ) ) ))
(assert ( or ( and ( >= lam5n0 0 ) ( >= lam5n1 0 ) ( >= lam5n2 0 ) ( > ( + ( * 3 lam5n0 ) ( * 3 lam5n1 ) ( * Nl4CT1 lam5n2 ) ( - 1 ) ) 0 ) ( = ( + ( * ( - 1 ) lam5n0 ) ( * Nl4arg11 lam5n2 ) ) 0 ) ( = ( + ( * ( - 1 ) lam5n1 ) ( * Nl4arg21 lam5n2 ) ) 0 ) ( = ( * Nl4arg31 lam5n2 ) 0 ) ( = ( * Nl4arg41 lam5n2 ) 0 ) ( = ( * Nl4arg51 lam5n2 ) 0 ) ( = ( * Nl4arg61 lam5n2 ) 0 ) ) ( and ( and ( >= lam6n0 0 ) ( >= lam6n1 0 ) ( >= lam6n2 0 ) ( > ( + ( * 3 lam6n0 ) ( * 3 lam6n1 ) ( * Nl4CT1 lam6n2 ) ( - 1 ( + 0 ( * ( - 1 ) UndefDef0undef34_CT ) ) ) ) 0 ) ( = ( + ( * ( - 1 ) lam6n0 ) ( * Nl4arg11 lam6n2 ) ( - ( * UndefDef0undef34_arg1 ( - 1 ) ) ) ) 0 ) ( = ( + ( * ( - 1 ) lam6n1 ) ( * Nl4arg21 lam6n2 ) ( - ( * UndefDef0undef34_arg2 ( - 1 ) ) ) ) 0 ) ( = ( + ( * Nl4arg31 lam6n2 ) ( - ( * UndefDef0undef34_arg3 ( - 1 ) ) ) ) 0 ) ( = ( + ( * Nl4arg41 lam6n2 ) ( - ( * UndefDef0undef34_arg4 ( - 1 ) ) ) ) 0 ) ( = ( + ( * Nl4arg51 lam6n2 ) ( - ( * UndefDef0undef34_arg5 ( - 1 ) ) ) ) 0 ) ( = ( + ( * Nl4arg61 lam6n2 ) ( - ( * UndefDef0undef34_arg6 ( - 1 ) ) ) ) 0 ) ) ( and ( >= lam7n0 0 ) ( >= lam7n1 0 ) ( >= lam7n2 0 ) ( > ( + ( * 3 lam7n0 ) ( * 3 lam7n1 ) ( * Nl4CT1 lam7n2 ) ( - 1 ( + 0 ( * ( - 1 ) UndefDef0undef35_CT ) ) ) ) 0 ) ( = ( + ( * ( - 1 ) lam7n0 ) ( * Nl4arg11 lam7n2 ) ( - ( * UndefDef0undef35_arg1 ( - 1 ) ) ) ) 0 ) ( = ( + ( * ( - 1 ) lam7n1 ) ( * Nl4arg21 lam7n2 ) ( - ( * UndefDef0undef35_arg2 ( - 1 ) ) ) ) 0 ) ( = ( + ( * Nl4arg31 lam7n2 ) ( - ( * UndefDef0undef35_arg3 ( - 1 ) ) ) ) 0 ) ( = ( + ( * Nl4arg41 lam7n2 ) ( - ( * UndefDef0undef35_arg4 ( - 1 ) ) ) ) 0 ) ( = ( + ( * Nl4arg51 lam7n2 ) ( - ( * UndefDef0undef35_arg5 ( - 1 ) ) ) ) 0 ) ( = ( + ( * Nl4arg61 lam7n2 ) ( - ( * UndefDef0undef35_arg6 ( - 1 ) ) ) ) 0 ) ) ( and ( >= lam8n0 0 ) ( >= lam8n1 0 ) ( >= lam8n2 0 ) ( > ( + ( * 3 lam8n0 ) ( * 3 lam8n1 ) ( * Nl4CT1 lam8n2 ) ( - 1 ( + ( + 2 0 ) ( * 1 UndefDef0undef34_CT ) ) ) ) 0 ) ( = ( + ( * ( - 1 ) lam8n0 ) ( * Nl4arg11 lam8n2 ) ( - ( + ( - 1 ) ( * UndefDef0undef34_arg1 1 ) ) ) ) 0 ) ( = ( + ( * ( - 1 ) lam8n1 ) ( * Nl4arg21 lam8n2 ) ( - ( * UndefDef0undef34_arg2 1 ) ) ) 0 ) ( = ( + ( * Nl4arg31 lam8n2 ) ( - ( * UndefDef0undef34_arg3 1 ) ) ) 0 ) ( = ( + ( * Nl4arg41 lam8n2 ) ( - ( * UndefDef0undef34_arg4 1 ) ) ) 0 ) ( = ( + ( * Nl4arg51 lam8n2 ) ( - ( * UndefDef0undef34_arg5 1 ) ) ) 0 ) ( = ( + ( * Nl4arg61 lam8n2 ) ( - ( * UndefDef0undef34_arg6 1 ) ) ) 0 ) ) ( and ( >= lam9n0 0 ) ( >= lam9n1 0 ) ( >= lam9n2 0 ) ( > ( + ( * 3 lam9n0 ) ( * 3 lam9n1 ) ( * Nl4CT1 lam9n2 ) ( - 1 ( + ( + 2 0 ) ( * 1 UndefDef0undef35_CT ) ) ) ) 0 ) ( = ( + ( * ( - 1 ) lam9n0 ) ( * Nl4arg11 lam9n2 ) ( - ( + ( - 1 ) ( * UndefDef0undef35_arg1 1 ) ) ) ) 0 ) ( = ( + ( * ( - 1 ) lam9n1 ) ( * Nl4arg21 lam9n2 ) ( - ( * UndefDef0undef35_arg2 1 ) ) ) 0 ) ( = ( + ( * Nl4arg31 lam9n2 ) ( - ( * UndefDef0undef35_arg3 1 ) ) ) 0 ) ( = ( + ( * Nl4arg41 lam9n2 ) ( - ( * UndefDef0undef35_arg4 1 ) ) ) 0 ) ( = ( + ( * Nl4arg51 lam9n2 ) ( - ( * UndefDef0undef35_arg5 1 ) ) ) 0 ) ( = ( + ( * Nl4arg61 lam9n2 ) ( - ( * UndefDef0undef35_arg6 1 ) ) ) 0 ) ) ( and ( >= lam10n0 0 ) ( >= lam10n1 0 ) ( >= lam10n2 0 ) ( > ( + ( * 3 lam10n0 ) ( * 3 lam10n1 ) ( * Nl4CT1 lam10n2 ) ( - 1 ( + ( + 2 0 ) ( * 1 UndefDef0undef34_CT ) ) ) ) 0 ) ( = ( + ( * ( - 1 ) lam10n0 ) ( * Nl4arg11 lam10n2 ) ( - ( * UndefDef0undef34_arg1 1 ) ) ) 0 ) ( = ( + ( * ( - 1 ) lam10n1 ) ( * Nl4arg21 lam10n2 ) ( - ( + ( - 1 ) ( * UndefDef0undef34_arg2 1 ) ) ) ) 0 ) ( = ( + ( * Nl4arg31 lam10n2 ) ( - ( * UndefDef0undef34_arg3 1 ) ) ) 0 ) ( = ( + ( * Nl4arg41 lam10n2 ) ( - ( * UndefDef0undef34_arg4 1 ) ) ) 0 ) ( = ( + ( * Nl4arg51 lam10n2 ) ( - ( * UndefDef0undef34_arg5 1 ) ) ) 0 ) ( = ( + ( * Nl4arg61 lam10n2 ) ( - ( * UndefDef0undef34_arg6 1 ) ) ) 0 ) ) ( and ( >= lam11n0 0 ) ( >= lam11n1 0 ) ( >= lam11n2 0 ) ( > ( + ( * 3 lam11n0 ) ( * 3 lam11n1 ) ( * Nl4CT1 lam11n2 ) ( - 1 ( + ( + 2 0 ) ( * 1 UndefDef0undef35_CT ) ) ) ) 0 ) ( = ( + ( * ( - 1 ) lam11n0 ) ( * Nl4arg11 lam11n2 ) ( - ( * UndefDef0undef35_arg1 1 ) ) ) 0 ) ( = ( + ( * ( - 1 ) lam11n1 ) ( * Nl4arg21 lam11n2 ) ( - ( + ( - 1 ) ( * UndefDef0undef35_arg2 1 ) ) ) ) 0 ) ( = ( + ( * Nl4arg31 lam11n2 ) ( - ( * UndefDef0undef35_arg3 1 ) ) ) 0 ) ( = ( + ( * Nl4arg41 lam11n2 ) ( - ( * UndefDef0undef35_arg4 1 ) ) ) 0 ) ( = ( + ( * Nl4arg51 lam11n2 ) ( - ( * UndefDef0undef35_arg5 1 ) ) ) 0 ) ( = ( + ( * Nl4arg61 lam11n2 ) ( - ( * UndefDef0undef35_arg6 1 ) ) ) 0 ) ) ( or ( and ( = UndefCntr0_undef34 0 ) ( = UndefCntr0_undef35 0 ) ) ( and ( >= lam12n0 0 ) ( >= lam12n1 0 ) ( >= lam12n2 0 ) ( > ( + ( * 3 lam12n0 ) ( * 3 lam12n1 ) ( * Nl4CT1 lam12n2 ) ( - 1 ( + ( + ( + ( + ( + ( + ( + ( + ( + ( + ( + ( + UndefCntr0_CT 0 ) 0 ) 0 ) 0 ) 0 ) 0 ) ( * UndefCntr0_undef34 UndefDef0undef34_CT ) ) ( * UndefCntr0_undef35 UndefDef0undef35_CT ) ) 0 ) 0 ) 0 ) 0 ) ) ) 0 ) ( = ( + ( * ( - 1 ) lam12n0 ) ( * Nl4arg11 lam12n2 ) ( - ( + ( + UndefCntr0_arg1 ( * UndefDef0undef34_arg1 UndefCntr0_undef34 ) ) ( * UndefDef0undef35_arg1 UndefCntr0_undef35 ) ) ) ) 0 ) ( = ( + ( * ( - 1 ) lam12n1 ) ( * Nl4arg21 lam12n2 ) ( - ( + ( + UndefCntr0_arg2 ( * UndefDef0undef34_arg2 UndefCntr0_undef34 ) ) ( * UndefDef0undef35_arg2 UndefCntr0_undef35 ) ) ) ) 0 ) ( = ( + ( * Nl4arg31 lam12n2 ) ( - ( + ( + UndefCntr0_arg3 ( * UndefDef0undef34_arg3 UndefCntr0_undef34 ) ) ( * UndefDef0undef35_arg3 UndefCntr0_undef35 ) ) ) ) 0 ) ( = ( + ( * Nl4arg41 lam12n2 ) ( - ( + ( + UndefCntr0_arg4 ( * UndefDef0undef34_arg4 UndefCntr0_undef34 ) ) ( * UndefDef0undef35_arg4 UndefCntr0_undef35 ) ) ) ) 0 ) ( = ( + ( * Nl4arg51 lam12n2 ) ( - ( + ( + UndefCntr0_arg5 ( * UndefDef0undef34_arg5 UndefCntr0_undef34 ) ) ( * UndefDef0undef35_arg5 UndefCntr0_undef35 ) ) ) ) 0 ) ( = ( + ( * Nl4arg61 lam12n2 ) ( - ( + ( + UndefCntr0_arg6 ( * UndefDef0undef34_arg6 UndefCntr0_undef34 ) ) ( * UndefDef0undef35_arg6 UndefCntr0_undef35 ) ) ) ) 0 ) ( = ( - UndefCntr0_undef36 ) 0 ) ( = ( - UndefCntr0_undef37 ) 0 ) ( = ( - UndefCntr0_undef38 ) 0 ) ( = ( - UndefCntr0_undef39 ) 0 ) ) ) ) ))
(assert ( or ( and ( >= lam13n0 0 ) ( >= lam13n1 0 ) ( >= lam13n2 0 ) ( > ( + ( * 3 lam13n0 ) ( * 3 lam13n1 ) ( * Nl4CT1 lam13n2 ) ( - 1 ) ) 0 ) ( = ( + ( * ( - 1 ) lam13n0 ) ( * Nl4arg11 lam13n2 ) ) 0 ) ( = ( + ( * ( - 1 ) lam13n1 ) ( * Nl4arg21 lam13n2 ) ) 0 ) ( = ( * Nl4arg31 lam13n2 ) 0 ) ( = ( * Nl4arg41 lam13n2 ) 0 ) ( = ( * Nl4arg51 lam13n2 ) 0 ) ( = ( * Nl4arg61 lam13n2 ) 0 ) ) ( and ( and ( >= lam14n0 0 ) ( >= lam14n1 0 ) ( >= lam14n2 0 ) ( > ( + ( * 3 lam14n0 ) ( * 3 lam14n1 ) ( * Nl4CT1 lam14n2 ) ( - 1 ( + 3 ( * ( - 1 ) UndefDef1undef40_CT ) ) ) ) 0 ) ( = ( + ( * ( - 1 ) lam14n0 ) ( * Nl4arg11 lam14n2 ) ( - ( * UndefDef1undef40_arg1 ( - 1 ) ) ) ) 0 ) ( = ( + ( * ( - 1 ) lam14n1 ) ( * Nl4arg21 lam14n2 ) ( - ( * UndefDef1undef40_arg2 ( - 1 ) ) ) ) 0 ) ( = ( + ( * Nl4arg31 lam14n2 ) ( - ( * UndefDef1undef40_arg3 ( - 1 ) ) ) ) 0 ) ( = ( + ( * Nl4arg41 lam14n2 ) ( - ( * UndefDef1undef40_arg4 ( - 1 ) ) ) ) 0 ) ( = ( + ( * Nl4arg51 lam14n2 ) ( - ( * UndefDef1undef40_arg5 ( - 1 ) ) ) ) 0 ) ( = ( + ( * Nl4arg61 lam14n2 ) ( - ( * UndefDef1undef40_arg6 ( - 1 ) ) ) ) 0 ) ) ( and ( >= lam15n0 0 ) ( >= lam15n1 0 ) ( >= lam15n2 0 ) ( > ( + ( * 3 lam15n0 ) ( * 3 lam15n1 ) ( * Nl4CT1 lam15n2 ) ( - 1 ( + 3 ( * ( - 1 ) UndefDef1undef41_CT ) ) ) ) 0 ) ( = ( + ( * ( - 1 ) lam15n0 ) ( * Nl4arg11 lam15n2 ) ( - ( * UndefDef1undef41_arg1 ( - 1 ) ) ) ) 0 ) ( = ( + ( * ( - 1 ) lam15n1 ) ( * Nl4arg21 lam15n2 ) ( - ( * UndefDef1undef41_arg2 ( - 1 ) ) ) ) 0 ) ( = ( + ( * Nl4arg31 lam15n2 ) ( - ( * UndefDef1undef41_arg3 ( - 1 ) ) ) ) 0 ) ( = ( + ( * Nl4arg41 lam15n2 ) ( - ( * UndefDef1undef41_arg4 ( - 1 ) ) ) ) 0 ) ( = ( + ( * Nl4arg51 lam15n2 ) ( - ( * UndefDef1undef41_arg5 ( - 1 ) ) ) ) 0 ) ( = ( + ( * Nl4arg61 lam15n2 ) ( - ( * UndefDef1undef41_arg6 ( - 1 ) ) ) ) 0 ) ) ( and ( >= lam16n0 0 ) ( >= lam16n1 0 ) ( >= lam16n2 0 ) ( > ( + ( * 3 lam16n0 ) ( * 3 lam16n1 ) ( * Nl4CT1 lam16n2 ) ( - 1 ( + ( + ( - 2 ) 0 ) ( * 1 UndefDef1undef40_CT ) ) ) ) 0 ) ( = ( + ( * ( - 1 ) lam16n0 ) ( * Nl4arg11 lam16n2 ) ( - ( + ( - 1 ) ( * UndefDef1undef40_arg1 1 ) ) ) ) 0 ) ( = ( + ( * ( - 1 ) lam16n1 ) ( * Nl4arg21 lam16n2 ) ( - ( * UndefDef1undef40_arg2 1 ) ) ) 0 ) ( = ( + ( * Nl4arg31 lam16n2 ) ( - ( * UndefDef1undef40_arg3 1 ) ) ) 0 ) ( = ( + ( * Nl4arg41 lam16n2 ) ( - ( * UndefDef1undef40_arg4 1 ) ) ) 0 ) ( = ( + ( * Nl4arg51 lam16n2 ) ( - ( * UndefDef1undef40_arg5 1 ) ) ) 0 ) ( = ( + ( * Nl4arg61 lam16n2 ) ( - ( * UndefDef1undef40_arg6 1 ) ) ) 0 ) ) ( and ( >= lam17n0 0 ) ( >= lam17n1 0 ) ( >= lam17n2 0 ) ( > ( + ( * 3 lam17n0 ) ( * 3 lam17n1 ) ( * Nl4CT1 lam17n2 ) ( - 1 ( + ( + ( - 2 ) 0 ) ( * 1 UndefDef1undef41_CT ) ) ) ) 0 ) ( = ( + ( * ( - 1 ) lam17n0 ) ( * Nl4arg11 lam17n2 ) ( - ( + ( - 1 ) ( * UndefDef1undef41_arg1 1 ) ) ) ) 0 ) ( = ( + ( * ( - 1 ) lam17n1 ) ( * Nl4arg21 lam17n2 ) ( - ( * UndefDef1undef41_arg2 1 ) ) ) 0 ) ( = ( + ( * Nl4arg31 lam17n2 ) ( - ( * UndefDef1undef41_arg3 1 ) ) ) 0 ) ( = ( + ( * Nl4arg41 lam17n2 ) ( - ( * UndefDef1undef41_arg4 1 ) ) ) 0 ) ( = ( + ( * Nl4arg51 lam17n2 ) ( - ( * UndefDef1undef41_arg5 1 ) ) ) 0 ) ( = ( + ( * Nl4arg61 lam17n2 ) ( - ( * UndefDef1undef41_arg6 1 ) ) ) 0 ) ) ( and ( >= lam18n0 0 ) ( >= lam18n1 0 ) ( >= lam18n2 0 ) ( > ( + ( * 3 lam18n0 ) ( * 3 lam18n1 ) ( * Nl4CT1 lam18n2 ) ( - 1 ( + ( + ( - 2 ) 0 ) ( * 1 UndefDef1undef40_CT ) ) ) ) 0 ) ( = ( + ( * ( - 1 ) lam18n0 ) ( * Nl4arg11 lam18n2 ) ( - ( * UndefDef1undef40_arg1 1 ) ) ) 0 ) ( = ( + ( * ( - 1 ) lam18n1 ) ( * Nl4arg21 lam18n2 ) ( - ( + ( - 1 ) ( * UndefDef1undef40_arg2 1 ) ) ) ) 0 ) ( = ( + ( * Nl4arg31 lam18n2 ) ( - ( * UndefDef1undef40_arg3 1 ) ) ) 0 ) ( = ( + ( * Nl4arg41 lam18n2 ) ( - ( * UndefDef1undef40_arg4 1 ) ) ) 0 ) ( = ( + ( * Nl4arg51 lam18n2 ) ( - ( * UndefDef1undef40_arg5 1 ) ) ) 0 ) ( = ( + ( * Nl4arg61 lam18n2 ) ( - ( * UndefDef1undef40_arg6 1 ) ) ) 0 ) ) ( and ( >= lam19n0 0 ) ( >= lam19n1 0 ) ( >= lam19n2 0 ) ( > ( + ( * 3 lam19n0 ) ( * 3 lam19n1 ) ( * Nl4CT1 lam19n2 ) ( - 1 ( + ( + ( - 2 ) 0 ) ( * 1 UndefDef1undef41_CT ) ) ) ) 0 ) ( = ( + ( * ( - 1 ) lam19n0 ) ( * Nl4arg11 lam19n2 ) ( - ( * UndefDef1undef41_arg1 1 ) ) ) 0 ) ( = ( + ( * ( - 1 ) lam19n1 ) ( * Nl4arg21 lam19n2 ) ( - ( + ( - 1 ) ( * UndefDef1undef41_arg2 1 ) ) ) ) 0 ) ( = ( + ( * Nl4arg31 lam19n2 ) ( - ( * UndefDef1undef41_arg3 1 ) ) ) 0 ) ( = ( + ( * Nl4arg41 lam19n2 ) ( - ( * UndefDef1undef41_arg4 1 ) ) ) 0 ) ( = ( + ( * Nl4arg51 lam19n2 ) ( - ( * UndefDef1undef41_arg5 1 ) ) ) 0 ) ( = ( + ( * Nl4arg61 lam19n2 ) ( - ( * UndefDef1undef41_arg6 1 ) ) ) 0 ) ) ( or ( and ( = UndefCntr1_undef40 0 ) ( = UndefCntr1_undef41 0 ) ) ( and ( >= lam20n0 0 ) ( >= lam20n1 0 ) ( >= lam20n2 0 ) ( > ( + ( * 3 lam20n0 ) ( * 3 lam20n1 ) ( * Nl4CT1 lam20n2 ) ( - 1 ( + ( + ( + ( + ( + ( + ( + ( + ( + ( + ( + ( + UndefCntr1_CT 0 ) 0 ) 0 ) 0 ) 0 ) 0 ) ( * UndefCntr1_undef40 UndefDef1undef40_CT ) ) ( * UndefCntr1_undef41 UndefDef1undef41_CT ) ) 0 ) 0 ) 0 ) 0 ) ) ) 0 ) ( = ( + ( * ( - 1 ) lam20n0 ) ( * Nl4arg11 lam20n2 ) ( - ( + ( + UndefCntr1_arg1 ( * UndefDef1undef40_arg1 UndefCntr1_undef40 ) ) ( * UndefDef1undef41_arg1 UndefCntr1_undef41 ) ) ) ) 0 ) ( = ( + ( * ( - 1 ) lam20n1 ) ( * Nl4arg21 lam20n2 ) ( - ( + ( + UndefCntr1_arg2 ( * UndefDef1undef40_arg2 UndefCntr1_undef40 ) ) ( * UndefDef1undef41_arg2 UndefCntr1_undef41 ) ) ) ) 0 ) ( = ( + ( * Nl4arg31 lam20n2 ) ( - ( + ( + UndefCntr1_arg3 ( * UndefDef1undef40_arg3 UndefCntr1_undef40 ) ) ( * UndefDef1undef41_arg3 UndefCntr1_undef41 ) ) ) ) 0 ) ( = ( + ( * Nl4arg41 lam20n2 ) ( - ( + ( + UndefCntr1_arg4 ( * UndefDef1undef40_arg4 UndefCntr1_undef40 ) ) ( * UndefDef1undef41_arg4 UndefCntr1_undef41 ) ) ) ) 0 ) ( = ( + ( * Nl4arg51 lam20n2 ) ( - ( + ( + UndefCntr1_arg5 ( * UndefDef1undef40_arg5 UndefCntr1_undef40 ) ) ( * UndefDef1undef41_arg5 UndefCntr1_undef41 ) ) ) ) 0 ) ( = ( + ( * Nl4arg61 lam20n2 ) ( - ( + ( + UndefCntr1_arg6 ( * UndefDef1undef40_arg6 UndefCntr1_undef40 ) ) ( * UndefDef1undef41_arg6 UndefCntr1_undef41 ) ) ) ) 0 ) ( = ( - UndefCntr1_undef42 ) 0 ) ( = ( - UndefCntr1_undef43 ) 0 ) ( = ( - UndefCntr1_undef44 ) 0 ) ( = ( - UndefCntr1_undef45 ) 0 ) ) ) ) ))
(assert ( or ( and ( >= lam21n0 0 ) ( >= lam21n1 0 ) ( >= lam21n2 0 ) ( > ( + ( * 3 lam21n0 ) ( * ( - 2 ) lam21n1 ) ( * Nl4CT1 lam21n2 ) ( - 1 ) ) 0 ) ( = ( + ( * ( - 1 ) lam21n0 ) ( * Nl4arg11 lam21n2 ) ) 0 ) ( = ( + ( * 1 lam21n1 ) ( * Nl4arg21 lam21n2 ) ) 0 ) ( = ( * Nl4arg31 lam21n2 ) 0 ) ( = ( * Nl4arg41 lam21n2 ) 0 ) ( = ( * Nl4arg51 lam21n2 ) 0 ) ( = ( * Nl4arg61 lam21n2 ) 0 ) ) ( and ( >= lam22n0 0 ) ( >= lam22n1 0 ) ( > ( + ( * ( - 2 ) lam22n0 ) ( * Nl4CT1 lam22n1 ) ( - 1 ) ) 0 ) ( = ( + ( * 1 lam22n0 ) ( * Nl4arg11 lam22n1 ) ) 0 ) ( = ( * Nl4arg21 lam22n1 ) 0 ) ( = ( * Nl4arg31 lam22n1 ) 0 ) ( = ( * Nl4arg41 lam22n1 ) 0 ) ( = ( * Nl4arg51 lam22n1 ) 0 ) ( = ( * Nl4arg61 lam22n1 ) 0 ) ) ))
(assert ( and ( <= ( + Nl4CT1 ( * Nl4arg11 FV_arg1_3 ) ( * Nl4arg21 FV_arg2_3 ) ( * Nl4arg31 FV_arg3_3 ) ( * Nl4arg41 FV_arg4_3 ) ( * Nl4arg51 FV_arg5_3 ) ( * Nl4arg61 FV_arg6_3 ) ) 0 ) ( or ( and ( <= ( * ( - 1 ) FV_undef34_3 ) 0 ) ( <= ( * ( - 1 ) FV_undef35_3 ) 0 ) ( <= ( + 2 FV_undef34_3 ( * ( - 1 ) FV_arg1_3 ) ) 0 ) ( <= ( + 2 FV_undef35_3 ( * ( - 1 ) FV_arg1_3 ) ) 0 ) ( <= ( + 2 FV_undef34_3 ( * ( - 1 ) FV_arg2_3 ) ) 0 ) ( <= ( + 2 FV_undef35_3 ( * ( - 1 ) FV_arg2_3 ) ) 0 ) ( <= ( + 3 ( * ( - 1 ) FV_arg1_3 ) ) 0 ) ( <= ( + 3 ( * ( - 1 ) FV_arg2_3 ) ) 0 ) ) ( and ( <= ( + 3 ( * ( - 1 ) FV_arg1_3 ) ) 0 ) ( <= ( + 3 ( * ( - 1 ) FV_arg2_3 ) ) 0 ) ( <= ( + 3 ( * ( - 1 ) FV_undef40_3 ) ) 0 ) ( <= ( + 3 ( * ( - 1 ) FV_undef41_3 ) ) 0 ) ( <= ( + ( - 2 ) ( * ( - 1 ) FV_arg1_3 ) FV_undef40_3 ) 0 ) ( <= ( + ( - 2 ) ( * ( - 1 ) FV_arg1_3 ) FV_undef41_3 ) 0 ) ( <= ( + ( - 2 ) ( * ( - 1 ) FV_arg2_3 ) FV_undef40_3 ) 0 ) ( <= ( + ( - 2 ) ( * ( - 1 ) FV_arg2_3 ) FV_undef41_3 ) 0 ) ) ) ))
(check-sat)
(exit)
